NAME : random_6
COMMENT : 60 random nodes
TYPE : TSP
DIMENSION : 60
EDGE_WEIGHT_TYPE : EUC_2D
NODE_COORD_SECTION
1 21 945
2 326 540
3 618 992
4 743 951
5 578 924
6 943 231
7 330 526
8 606 146
9 884 751
10 120 920
11 579 744
12 836 241
13 415 89
14 670 41
15 314 876
16 773 806
17 791 262
18 32 256
19 682 96
20 431 127
21 278 19
22 810 594
23 371 569
24 90 96
25 671 632
26 659 141
27 487 994
28 813 704
29 837 260
30 923 600
31 695 109
32 650 613
33 433 875
34 766 504
35 769 340
36 335 776
37 242 329
38 971 916
39 33 657
40 250 145
41 949 172
42 420 915
43 14 618
44 771 699
45 549 881
46 19 121
47 889 566
48 110 227
49 815 714
50 408 522
51 67 346
52 933 175
53 580 573
54 639 763
55 661 402
56 932 491
57 955 328
58 816 883
59 646 947
60 447 983
EOF